Route #1: 47 46 36 49 19 30 88 
Route #2: 99 6 13 89 18 83 8 62 64 
Route #3: 60 86 84 93 95 58 25 
Route #4: 48 63 32 70 9 50 
Route #5: 57 43 42 87 37 61 92 
Route #6: 55 67 39 4 72 40 
Route #7: 71 20 35 34 78 81 51 31 
Route #8: 44 16 14 38 15 41 2 53 
Route #9: 28 29 24 68 80 76 1 27 
Route #10: 26 75 22 56 23 73 74 
Route #11: 5 96 85 17 45 
Route #12: 69 65 66 90 11 10 7 82 
Route #13: 3 77 33 79 12 54 21 
Route #14: 97 98 100 91 59 94 52 
cost 1599.73
execution_time 55.547
